p tw 56 84
1 24
1 50
1 52
2 35
2 25
2 38
13 53
13 40
13 52
24 54
24 3
35 8
35 16
46 55
46 6
46 47
53 56
53 7
54 5
54 11
55 56
55 28
56 5
3 10
3 23
4 9
4 19
4 50
5 12
6 11
6 51
7 15
7 32
8 9
8 10
9 17
10 14
11 36
12 14
12 18
14 21
15 16
15 18
16 20
17 22
17 43
18 26
19 20
19 40
20 27
21 22
21 30
22 28
23 25
23 42
25 51
26 29
26 31
27 29
27 48
28 34
29 36
30 31
30 33
31 39
32 38
32 44
33 37
33 42
34 37
34 40
36 45
37 48
38 47
39 41
39 44
41 43
41 45
42 49
43 47
44 49
45 50
48 51
49 52
